Version identifier: 12.10.0.0 | 2019-11-26 | 843d4de
CPXPARAM_WorkMem                                 28672
Tried aggregator 2 times.
Aggregator did 50 substitutions.
Reduced MIP has 163 rows, 180 columns, and 771 nonzeros.
Reduced MIP has 180 binaries, 0 generals, 0 SOSs, and 0 indicators.
Presolve time = 0,00 sec. (0,77 ticks)
Found incumbent of value 3174,000000 after 0,00 sec. (1,25 ticks)
Probing time = 0,00 sec. (0,36 ticks)
Tried aggregator 1 time.
Detecting symmetries...
MIP Presolve eliminated 21 rows and 0 columns.
MIP Presolve added 42 rows and 0 columns.
Reduced MIP has 184 rows, 180 columns, and 792 nonzeros.
Reduced MIP has 180 binaries, 0 generals, 0 SOSs, and 0 indicators.
Presolve time = 0,00 sec. (0,94 ticks)
Probing time = 0,00 sec. (0,36 ticks)
Clique table members: 571.
MIP emphasis: balance optimality and feasibility.
MIP search method: dynamic search.
Parallel mode: deterministic, using up to 16 threads.
Root relaxation solution time = 0,00 sec. (0,47 ticks)

        Nodes                                         Cuts/
   Node  Left     Objective  IInf  Best Integer    Best Bound    ItCnt     Gap

*     0+    0                         3174,0000        0,0000           100,00%
*     0+    0                         2428,0000        0,0000           100,00%
      0     0     1058,0000   145     2428,0000     1058,0000       47   56,43%
      0     0     1059,1393   145     2428,0000     Cuts: 146       70   56,38%
      0     0     1064,7573   145     2428,0000     Cuts: 146       91   56,15%
      0     0     1067,3352   145     2428,0000     Cuts: 146      108   56,04%
      0     0     1068,8041   145     2428,0000      Cuts: 11      117   55,98%
      0     0     1070,3424   145     2428,0000       Cuts: 3      125   55,92%
Detecting symmetries...
      0     0     1072,7165   145     2428,0000       Cuts: 2      138   55,82%
      0     0     1072,9462   145     2428,0000     Cuts: 146      143   55,81%
      0     0     1073,3689   145     2428,0000   ZeroHalf: 3      152   55,79%
      0     0     1073,3704   145     2428,0000     Cuts: 101      153   55,79%
*     0+    0                         2164,0000     1073,3704            50,40%
      0     0        cutoff           2164,0000     2164,0000      153    0,00%
Elapsed time = 0,14 sec. (41,84 ticks, tree = 0,01 MB, solutions = 3)

Clique cuts applied:  25
Cover cuts applied:  45
Flow cuts applied:  2
Mixed integer rounding cuts applied:  41
Zero-half cuts applied:  2
Gomory fractional cuts applied:  5

Root node processing (before b&c):
  Real time             =    0,14 sec. (41,86 ticks)
Parallel b&c, 16 threads:
  Real time             =    0,00 sec. (0,00 ticks)
  Sync time (average)   =    0,00 sec.
  Wait time (average)   =    0,00 sec.
                          ------------
Total (root+branch&cut) =    0,14 sec. (41,86 ticks)
